
  32    4
  10   10   10   10

   0   0   0   0   0   3 2 12 31 
   2   1   1   0   1   4 30 29 28 3 
   3   3   7   0   3   1 4 
   1  10   4   0   4   2 27 5 
   6   3   7   0   3   2 26 6 
   9   3   0   1   5   3 25 16 7 
   5   0   1   4   3   2 24 8 
  10   0   3   2   6   3 23 18 9 
  10   0   4   2   2   1 10 
   4   0   5   4   1   4 22 21 20 11 
   5   6   3   0   3   1 13 
   2   5   3   4   0   1 13 
   4   3   4   0   9   1 14 
   6   7   6   0   5   1 15 
   9   4   1   0   4   1 17 
   4   6   4   0   3   1 18 
   4   2   0   5   4   1 19 
  10   3   5   3   0   1 20 
   8   0   3   8   4   1 32
   3   3   0   7   4   1 32
   8   2   0   5   6   1 32
   4   8   0   6   5   1 32
   7   4   2   0   3   1 32
  10   0   6   2   3   1 32
   1   1   3   0   5   1 32
   3   5   6   0   4   1 32
   2   1   5   5   0   1 32
   9   4   0   7   4   1 32
  10   4   5   1   0   1 32
   5   3   0   3   6   1 32
   9   5   0   3   4   1 32
   0   0   0   0   0   0 
